Coordinates file successfully created at:
data/coord/qatar194.csv
Distances file successfully created at:
data/distances/qatar194.txt
presolving:
(round 1, fast)       195 del vars, 0 del conss, 0 add conss, 0 chg bounds, 0 chg sides, 0 chg coeffs, 0 upgd conss, 0 impls, 388 clqs
(round 2, exhaustive) 195 del vars, 0 del conss, 0 add conss, 0 chg bounds, 0 chg sides, 0 chg coeffs, 388 upgd conss, 0 impls, 388 clqs
   (2.8s) probing: 51/37442 (0.1%) - 0 fixings, 0 aggregations, 0 implications, 0 bound changes
   (2.8s) probing aborted: 50/50 successive totally useless probings
   Deactivated symmetry handling methods, since SCIP was built without symmetry detector (SYM=none).
presolving (3 rounds: 3 fast, 2 medium, 2 exhaustive):
 195 deleted vars, 0 deleted constraints, 0 added constraints, 0 tightened bounds, 0 added holes, 0 changed sides, 0 changed coefficients
 0 implications, 388 cliques
presolved problem has 37635 variables (37442 bin, 0 int, 0 impl, 193 cont) and 37444 constraints
    388 constraints of type <setppc>
  37056 constraints of type <linear>
transformed objective value is always integral (scale: 1)
Presolving Time: 3.18

 time | node  | left  |LP iter|LP it/n|mem/heur|mdpt |vars |cons |rows |cuts |sepa|confs|strbr|  dualbound   | primalbound  |  gap   | compl. 
p 6.8s|     1 |     0 |   228 |     - | vbounds|   0 |  37k|  37k|  37k|   0 |  0 |   5 |   0 | 0.000000e+00 | 3.979500e+04 |    Inf | unknown
  7.3s|     1 |     0 |   892 |     - |   325M |   0 |  37k|  37k|  37k|   0 |  0 |   5 |   0 | 8.148171e+03 | 3.979500e+04 | 388.39%| unknown
  9.5s|     1 |     0 |  1061 |     - |   334M |   0 |  37k|  37k|  37k| 148 |  1 |   5 |   0 | 8.730207e+03 | 3.979500e+04 | 355.83%| unknown
 11.9s|     1 |     0 |  1145 |     - |   339M |   0 |  37k|  37k|  37k| 214 |  2 |   5 |   0 | 8.758824e+03 | 3.979500e+04 | 354.34%| unknown
 14.2s|     1 |     0 |  1205 |     - |   347M |   0 |  37k|  37k|  37k| 229 |  3 |   5 |   0 | 8.906399e+03 | 3.979500e+04 | 346.81%| unknown
 17.0s|     1 |     0 |  1286 |     - |   353M |   0 |  37k|  37k|  37k| 285 |  4 |   5 |   0 | 8.948723e+03 | 3.979500e+04 | 344.70%| unknown
 18.7s|     1 |     0 |  1330 |     - |   360M |   0 |  37k|  37k|  37k| 312 |  5 |   5 |   0 | 8.987902e+03 | 3.979500e+04 | 342.76%| unknown
 20.3s|     1 |     0 |  1353 |     - |   364M |   0 |  37k|  37k|  37k| 323 |  6 |   5 |   0 | 9.017813e+03 | 3.979500e+04 | 341.29%| unknown
 21.8s|     1 |     0 |  1391 |     - |   370M |   0 |  37k|  37k|  37k| 344 |  7 |   5 |   0 | 9.019865e+03 | 3.979500e+04 | 341.19%| unknown
 23.2s|     1 |     0 |  1418 |     - |   378M |   0 |  37k|  37k|  37k| 355 |  8 |   5 |   0 | 9.061810e+03 | 3.979500e+04 | 339.15%| unknown
 24.6s|     1 |     0 |  1453 |     - |   382M |   0 |  37k|  37k|  37k| 368 |  9 |   5 |   0 | 9.075297e+03 | 3.979500e+04 | 338.50%| unknown
 26.1s|     1 |     0 |  1506 |     - |   388M |   0 |  37k|  37k|  37k| 389 | 10 |   5 |   0 | 9.107094e+03 | 3.979500e+04 | 336.97%| unknown
 27.3s|     1 |     0 |  1526 |     - |   393M |   0 |  37k|  37k|  37k| 404 | 11 |   5 |   0 | 9.107589e+03 | 3.979500e+04 | 336.94%| unknown
 28.7s|     1 |     0 |  1553 |     - |   397M |   0 |  37k|  37k|  37k| 409 | 12 |   5 |   0 | 9.111084e+03 | 3.979500e+04 | 336.78%| unknown
 30.1s|     1 |     0 |  1624 |     - |   401M |   0 |  37k|  37k|  37k| 427 | 13 |   5 |   0 | 9.121320e+03 | 3.979500e+04 | 336.29%| unknown
 time | node  | left  |LP iter|LP it/n|mem/heur|mdpt |vars |cons |rows |cuts |sepa|confs|strbr|  dualbound   | primalbound  |  gap   | compl. 
 34.5s|     1 |     0 |  1658 |     - |   405M |   0 |  37k|  37k|  37k| 444 | 14 |   5 |   0 | 9.122684e+03 | 3.979500e+04 | 336.22%| unknown
 35.8s|     1 |     0 |  1687 |     - |   409M |   0 |  37k|  37k|  37k| 462 | 15 |   5 |   0 | 9.129572e+03 | 3.979500e+04 | 335.89%| unknown
 37.0s|     1 |     0 |  1705 |     - |   412M |   0 |  37k|  37k|  37k| 472 | 16 |   5 |   0 | 9.131350e+03 | 3.979500e+04 | 335.81%| unknown
 38.2s|     1 |     0 |  1722 |     - |   417M |   0 |  37k|  37k|  37k| 476 | 17 |   5 |   0 | 9.134984e+03 | 3.979500e+04 | 335.63%| unknown
 39.7s|     1 |     0 |  1781 |     - |   421M |   0 |  37k|  37k|  37k| 485 | 18 |   5 |   0 | 9.139484e+03 | 3.979500e+04 | 335.42%| unknown
 41.0s|     1 |     0 |  1810 |     - |   425M |   0 |  37k|  37k|  37k| 497 | 19 |   5 |   0 | 9.139984e+03 | 3.979500e+04 | 335.39%| unknown
 46.2s|     1 |     0 |  1864 |     - |   428M |   0 |  37k|  37k|  37k| 511 | 20 |   5 |   0 | 9.141734e+03 | 3.979500e+04 | 335.31%| unknown
 48.1s|     1 |     0 |  1903 |     - |   428M |   0 |  37k|  37k|  37k| 527 | 21 |   5 |   0 | 9.141984e+03 | 3.979500e+04 | 335.30%| unknown
 49.6s|     1 |     0 |  1910 |     - |   428M |   0 |  37k|  37k|  37k| 534 | 22 |   5 |   0 | 9.141984e+03 | 3.979500e+04 | 335.30%| unknown
  178s|     1 |     2 |  8320 |     - |   434M |   0 |  37k|  37k|  37k| 534 | 24 |   9 |  27 | 9.144477e+03 | 3.979500e+04 | 335.18%| unknown
pressed CTRL-C 1 times (5 times for forcing termination)

SCIP Status        : solving was interrupted [user interrupt]
Solving Time (sec) : 576.98
Solving Nodes      : 12
Primal Bound       : +3.97950000000000e+04 (1 solutions)
Dual Bound         : +9.14447746113990e+03
Gap                : 335.18 %
Trying to solve problem with MTZ Solver Method...
A Solution was found
Objective value: 39795.0
Final Route Configuration succesfully created at:
data/routes/qatar194.csv
Plot image successfully created at:
images/plots/qatar194.png
